c "347449.clq"
p edge 100 1344
e 1 17
e 1 18
e 1 19
e 1 21
e 1 22
e 1 23
e 1 25
e 1 28
e 1 29
e 1 31
e 1 37
e 1 38
e 1 41
e 1 47
e 1 54
e 1 56
e 1 62
e 1 73
e 1 77
e 1 83
e 1 93
e 1 99
e 2 17
e 2 18
e 2 19
e 2 20
e 2 21
e 2 23
e 2 24
e 2 27
e 2 28
e 2 29
e 2 30
e 2 33
e 2 36
e 2 37
e 2 38
e 2 40
e 2 41
e 2 45
e 2 47
e 2 50
e 2 51
e 2 54
e 2 55
e 2 64
e 2 67
e 2 73
e 2 77
e 2 78
e 2 80
e 2 82
e 2 83
e 2 87
e 2 89
e 2 90
e 2 92
e 2 94
e 2 98
e 3 17
e 3 18
e 3 19
e 3 20
e 3 21
e 3 22
e 3 24
e 3 26
e 3 28
e 3 29
e 3 30
e 3 33
e 3 35
e 3 36
e 3 42
e 3 56
e 3 69
e 3 82
e 3 88
e 3 90
e 4 17
e 4 18
e 4 19
e 4 20
e 4 21
e 4 34
e 4 35
e 4 43
e 4 58
e 4 63
e 4 67
e 4 71
e 4 72
e 4 75
e 4 79
e 4 81
e 4 86
e 4 87
e 5 17
e 5 19
e 5 20
e 5 23
e 5 27
e 5 28
e 5 32
e 5 38
e 5 39
e 5 40
e 5 44
e 5 45
e 5 46
e 5 50
e 5 60
e 5 62
e 5 65
e 5 87
e 5 95
e 5 98
e 5 100
e 6 17
e 6 18
e 6 19
e 6 20
e 6 21
e 6 22
e 6 25
e 6 26
e 6 27
e 6 29
e 6 33
e 6 39
e 6 40
e 6 44
e 6 49
e 6 52
e 6 54
e 6 58
e 6 74
e 6 93
e 7 17
e 7 18
e 7 20
e 7 21
e 7 22
e 7 23
e 7 24
e 7 31
e 7 33
e 7 34
e 7 35
e 7 36
e 7 37
e 7 41
e 7 43
e 7 44
e 7 47
e 7 52
e 7 53
e 7 61
e 7 63
e 7 64
e 7 71
e 7 73
e 7 80
e 7 84
e 7 87
e 8 17
e 8 18
e 8 19
e 8 20
e 8 21
e 8 22
e 8 23
e 8 24
e 8 25
e 8 26
e 8 28
e 8 29
e 8 30
e 8 31
e 8 32
e 8 35
e 8 39
e 8 42
e 8 53
e 8 57
e 8 64
e 8 66
e 8 74
e 8 83
e 8 89
e 8 92
e 8 93
e 8 95
e 8 96
e 9 17
e 9 18
e 9 19
e 9 20
e 9 22
e 9 25
e 9 27
e 9 29
e 9 32
e 9 34
e 9 40
e 9 42
e 9 43
e 9 44
e 9 46
e 9 50
e 9 52
e 9 53
e 9 56
e 9 59
e 9 64
e 9 68
e 9 72
e 9 81
e 9 90
e 10 17
e 10 18
e 10 19
e 10 20
e 10 22
e 10 23
e 10 24
e 10 26
e 10 28
e 10 31
e 10 32
e 10 36
e 10 39
e 10 40
e 10 47
e 10 48
e 10 57
e 10 59
e 10 63
e 10 64
e 10 72
e 10 73
e 10 76
e 10 78
e 10 82
e 10 83
e 10 89
e 10 92
e 10 93
e 11 17
e 11 18
e 11 23
e 11 24
e 11 26
e 11 28
e 11 31
e 11 36
e 11 40
e 11 41
e 11 47
e 11 49
e 11 56
e 11 63
e 11 69
e 11 71
e 11 75
e 11 76
e 11 77
e 11 79
e 11 89
e 11 90
e 11 92
e 11 99
e 12 17
e 12 18
e 12 19
e 12 21
e 12 22
e 12 23
e 12 24
e 12 26
e 12 29
e 12 30
e 12 32
e 12 36
e 12 39
e 12 42
e 12 44
e 12 45
e 12 47
e 12 48
e 12 50
e 12 54
e 12 56
e 12 57
e 12 59
e 12 61
e 12 62
e 12 69
e 12 72
e 12 75
e 12 77
e 12 78
e 12 79
e 12 80
e 12 90
e 13 17
e 13 18
e 13 19
e 13 20
e 13 21
e 13 22
e 13 24
e 13 25
e 13 38
e 13 41
e 13 70
e 14 17
e 14 18
e 14 19
e 14 20
e 14 21
e 14 23
e 14 25
e 14 26
e 14 27
e 14 28
e 14 30
e 14 35
e 14 36
e 14 38
e 14 39
e 14 44
e 14 45
e 14 46
e 14 47
e 14 48
e 14 49
e 14 53
e 14 56
e 14 63
e 14 64
e 14 65
e 14 66
e 14 67
e 14 70
e 14 84
e 14 85
e 15 17
e 15 18
e 15 19
e 15 20
e 15 21
e 15 22
e 15 23
e 15 24
e 15 25
e 15 26
e 15 30
e 15 32
e 15 37
e 15 40
e 15 44
e 15 45
e 15 73
e 15 78
e 15 82
e 15 83
e 16 17
e 16 18
e 16 19
e 16 20
e 16 21
e 16 22
e 16 23
e 16 25
e 16 27
e 16 31
e 16 39
e 16 47
e 16 48
e 16 61
e 16 65
e 16 66
e 16 77
e 16 78
e 16 79
e 16 80
e 16 86
e 17 18
e 17 19
e 17 20
e 17 21
e 17 22
e 17 23
e 17 24
e 17 25
e 17 26
e 17 27
e 17 28
e 17 29
e 17 31
e 17 33
e 17 34
e 17 36
e 17 38
e 17 39
e 17 41
e 17 42
e 17 43
e 17 44
e 17 45
e 17 48
e 17 49
e 17 51
e 17 53
e 17 56
e 17 57
e 17 60
e 17 61
e 17 62
e 17 65
e 17 66
e 17 67
e 17 69
e 17 71
e 17 72
e 17 75
e 17 83
e 17 86
e 17 87
e 17 89
e 17 91
e 17 92
e 17 93
e 17 98
e 18 19
e 18 20
e 18 21
e 18 22
e 18 23
e 18 24
e 18 25
e 18 26
e 18 27
e 18 29
e 18 30
e 18 31
e 18 32
e 18 35
e 18 37
e 18 38
e 18 39
e 18 42
e 18 43
e 18 46
e 18 47
e 18 49
e 18 50
e 18 51
e 18 55
e 18 56
e 18 61
e 18 64
e 18 65
e 18 66
e 18 68
e 18 70
e 18 75
e 18 76
e 18 80
e 18 85
e 18 90
e 18 91
e 18 92
e 18 93
e 18 94
e 18 97
e 19 20
e 19 21
e 19 22
e 19 24
e 19 25
e 19 26
e 19 27
e 19 28
e 19 29
e 19 30
e 19 31
e 19 32
e 19 33
e 19 34
e 19 36
e 19 37
e 19 38
e 19 40
e 19 41
e 19 42
e 19 43
e 19 44
e 19 49
e 19 50
e 19 51
e 19 52
e 19 57
e 19 58
e 19 59
e 19 60
e 19 63
e 19 64
e 19 67
e 19 72
e 19 78
e 19 84
e 19 90
e 19 93
e 19 100
e 20 21
e 20 22
e 20 23
e 20 24
e 20 25
e 20 26
e 20 27
e 20 28
e 20 29
e 20 30
e 20 31
e 20 32
e 20 33
e 20 34
e 20 35
e 20 41
e 20 43
e 20 44
e 20 45
e 20 46
e 20 51
e 20 52
e 20 53
e 20 55
e 20 60
e 20 61
e 20 63
e 20 64
e 20 65
e 20 67
e 20 68
e 20 69
e 20 72
e 20 74
e 20 80
e 20 82
e 20 86
e 20 92
e 20 94
e 20 98
e 21 22
e 21 23
e 21 24
e 21 25
e 21 26
e 21 27
e 21 28
e 21 29
e 21 30
e 21 33
e 21 34
e 21 35
e 21 37
e 21 39
e 21 41
e 21 42
e 21 43
e 21 44
e 21 45
e 21 46
e 21 50
e 21 51
e 21 52
e 21 53
e 21 56
e 21 58
e 21 59
e 21 64
e 21 68
e 21 72
e 21 74
e 21 81
e 21 82
e 21 83
e 21 86
e 21 91
e 21 95
e 21 97
e 21 100
e 22 23
e 22 24
e 22 25
e 22 26
e 22 27
e 22 28
e 22 30
e 22 31
e 22 32
e 22 33
e 22 34
e 22 35
e 22 37
e 22 41
e 22 45
e 22 46
e 22 47
e 22 48
e 22 49
e 22 51
e 22 52
e 22 53
e 22 54
e 22 55
e 22 57
e 22 60
e 22 62
e 22 65
e 22 66
e 22 68
e 22 69
e 22 74
e 22 75
e 22 81
e 22 82
e 22 84
e 22 85
e 22 95
e 22 98
e 23 24
e 23 25
e 23 27
e 23 30
e 23 31
e 23 32
e 23 33
e 23 34
e 23 37
e 23 38
e 23 40
e 23 41
e 23 42
e 23 43
e 23 44
e 23 46
e 23 47
e 23 48
e 23 50
e 23 52
e 23 53
e 23 55
e 23 60
e 23 62
e 23 66
e 23 71
e 23 75
e 23 95
e 23 97
e 24 25
e 24 26
e 24 27
e 24 28
e 24 29
e 24 30
e 24 31
e 24 32
e 24 34
e 24 35
e 24 36
e 24 40
e 24 41
e 24 42
e 24 43
e 24 50
e 24 51
e 24 52
e 24 54
e 24 56
e 24 57
e 24 58
e 24 59
e 24 62
e 24 63
e 24 65
e 24 69
e 24 70
e 24 71
e 24 73
e 24 77
e 24 83
e 24 84
e 24 86
e 24 88
e 24 89
e 24 91
e 24 95
e 24 97
e 24 99
e 24 100
e 25 26
e 25 27
e 25 28
e 25 29
e 25 30
e 25 31
e 25 32
e 25 33
e 25 34
e 25 35
e 25 39
e 25 40
e 25 43
e 25 47
e 25 48
e 25 49
e 25 51
e 25 53
e 25 57
e 25 59
e 25 62
e 25 67
e 25 73
e 25 74
e 25 76
e 25 78
e 25 79
e 25 81
e 25 85
e 25 88
e 25 91
e 25 93
e 25 95
e 25 99
e 26 27
e 26 28
e 26 30
e 26 31
e 26 34
e 26 35
e 26 36
e 26 38
e 26 40
e 26 41
e 26 42
e 26 44
e 26 45
e 26 46
e 26 49
e 26 54
e 26 55
e 26 58
e 26 63
e 26 66
e 26 67
e 26 68
e 26 71
e 26 72
e 26 74
e 26 75
e 26 77
e 26 80
e 26 82
e 26 85
e 26 87
e 26 88
e 26 89
e 26 94
e 26 95
e 26 96
e 27 29
e 27 30
e 27 32
e 27 34
e 27 35
e 27 37
e 27 38
e 27 39
e 27 41
e 27 42
e 27 53
e 27 55
e 27 57
e 27 59
e 27 60
e 27 66
e 27 70
e 27 71
e 27 74
e 27 79
e 27 84
e 27 88
e 27 90
e 27 96
e 27 99
e 28 29
e 28 32
e 28 33
e 28 34
e 28 36
e 28 37
e 28 38
e 28 41
e 28 44
e 28 46
e 28 49
e 28 54
e 28 55
e 28 58
e 28 59
e 28 61
e 28 62
e 28 65
e 28 66
e 28 68
e 28 70
e 28 72
e 28 74
e 28 75
e 28 84
e 28 90
e 28 91
e 28 93
e 29 31
e 29 33
e 29 34
e 29 36
e 29 37
e 29 39
e 29 50
e 29 51
e 29 52
e 29 54
e 29 55
e 29 57
e 29 58
e 29 61
e 29 70
e 29 73
e 29 79
e 29 81
e 29 85
e 29 86
e 29 91
e 29 94
e 29 95
e 29 97
e 29 100
e 30 33
e 30 35
e 30 36
e 30 37
e 30 40
e 30 42
e 30 44
e 30 45
e 30 46
e 30 48
e 30 49
e 30 52
e 30 53
e 30 58
e 30 59
e 30 65
e 30 67
e 30 68
e 30 77
e 30 79
e 30 84
e 30 86
e 30 90
e 30 91
e 30 97
e 30 98
e 30 99
e 30 100
e 31 32
e 31 33
e 31 35
e 31 38
e 31 39
e 31 43
e 31 46
e 31 47
e 31 49
e 31 51
e 31 58
e 31 60
e 31 71
e 31 73
e 31 74
e 31 78
e 31 79
e 31 83
e 31 91
e 31 93
e 32 33
e 32 34
e 32 37
e 32 40
e 32 42
e 32 45
e 32 48
e 32 52
e 32 59
e 32 62
e 32 65
e 32 68
e 32 69
e 32 70
e 32 72
e 32 80
e 32 81
e 32 83
e 32 85
e 32 91
e 32 96
e 32 97
e 32 98
e 32 99
e 33 35
e 33 48
e 33 56
e 33 57
e 33 61
e 33 64
e 33 66
e 33 76
e 33 78
e 33 80
e 33 81
e 33 83
e 33 92
e 33 93
e 34 36
e 34 37
e 34 38
e 34 40
e 34 43
e 34 48
e 34 53
e 34 54
e 34 60
e 34 62
e 34 63
e 34 86
e 34 89
e 34 91
e 34 92
e 34 94
e 35 36
e 35 39
e 35 43
e 35 61
e 35 63
e 35 68
e 35 72
e 35 73
e 35 79
e 35 85
e 35 88
e 35 90
e 35 91
e 35 96
e 36 37
e 36 38
e 36 42
e 36 46
e 36 47
e 36 49
e 36 51
e 36 52
e 36 53
e 36 54
e 36 55
e 36 56
e 36 58
e 36 59
e 36 64
e 36 68
e 36 69
e 36 70
e 36 71
e 36 75
e 36 81
e 36 94
e 36 98
e 37 38
e 37 44
e 37 47
e 37 50
e 37 51
e 37 55
e 37 58
e 37 59
e 37 63
e 37 64
e 37 65
e 37 70
e 37 74
e 37 75
e 37 78
e 37 80
e 37 81
e 37 85
e 37 87
e 37 88
e 37 97
e 38 39
e 38 40
e 38 45
e 38 46
e 38 53
e 38 55
e 38 57
e 38 58
e 38 63
e 38 68
e 38 71
e 38 75
e 38 78
e 38 81
e 38 88
e 38 92
e 38 96
e 38 97
e 39 41
e 39 45
e 39 47
e 39 49
e 39 50
e 39 54
e 39 60
e 39 68
e 39 69
e 39 74
e 39 87
e 39 96
e 39 97
e 40 43
e 40 46
e 40 50
e 40 51
e 40 55
e 40 61
e 40 62
e 40 79
e 40 80
e 40 86
e 40 88
e 41 42
e 41 43
e 41 45
e 41 54
e 41 55
e 41 65
e 41 66
e 41 76
e 41 77
e 41 78
e 41 81
e 41 84
e 41 87
e 41 93
e 41 99
e 42 48
e 42 50
e 42 55
e 42 57
e 42 58
e 42 60
e 42 67
e 42 70
e 42 71
e 42 74
e 42 76
e 42 81
e 42 82
e 42 83
e 42 86
e 43 45
e 43 46
e 43 48
e 43 49
e 43 63
e 43 68
e 43 73
e 43 76
e 43 85
e 43 94
e 43 95
e 44 52
e 44 54
e 44 67
e 44 73
e 44 76
e 44 87
e 44 88
e 44 94
e 44 98
e 45 48
e 45 49
e 45 50
e 45 63
e 45 66
e 45 72
e 45 80
e 45 81
e 45 85
e 45 94
e 45 100
e 46 48
e 46 50
e 46 51
e 46 52
e 46 54
e 46 57
e 46 58
e 46 59
e 46 60
e 46 66
e 46 68
e 46 75
e 46 81
e 46 86
e 46 93
e 46 94
e 47 55
e 47 60
e 47 65
e 47 69
e 47 77
e 47 78
e 47 80
e 47 83
e 48 56
e 48 60
e 48 67
e 48 76
e 48 87
e 48 89
e 48 90
e 48 94
e 48 97
e 48 99
e 49 53
e 49 56
e 49 60
e 49 79
e 49 82
e 49 83
e 49 84
e 49 85
e 49 86
e 49 98
e 50 51
e 50 57
e 50 62
e 50 65
e 50 81
e 51 52
e 51 73
e 51 100
e 52 54
e 52 61
e 52 62
e 52 63
e 52 67
e 52 68
e 52 69
e 52 72
e 52 77
e 52 82
e 52 84
e 52 87
e 52 92
e 52 96
e 52 100
e 53 69
e 53 70
e 53 76
e 53 80
e 53 84
e 53 89
e 53 91
e 53 95
e 53 96
e 53 98
e 54 56
e 54 57
e 54 58
e 54 59
e 54 61
e 54 64
e 54 65
e 54 70
e 54 80
e 54 83
e 54 84
e 54 94
e 55 56
e 55 60
e 55 61
e 55 62
e 55 71
e 55 73
e 55 96
e 55 100
e 56 66
e 56 69
e 56 70
e 56 71
e 56 74
e 56 76
e 56 77
e 56 78
e 56 88
e 56 92
e 56 96
e 57 59
e 57 61
e 57 69
e 57 82
e 57 83
e 57 92
e 58 71
e 58 85
e 58 87
e 59 61
e 59 62
e 59 64
e 59 67
e 59 74
e 59 75
e 59 76
e 60 69
e 60 70
e 60 71
e 60 76
e 60 79
e 60 88
e 60 99
e 61 64
e 61 75
e 61 79
e 61 94
e 61 97
e 61 99
e 62 67
e 62 76
e 62 78
e 62 88
e 63 66
e 63 73
e 63 85
e 63 86
e 63 88
e 63 95
e 64 67
e 64 74
e 64 76
e 64 77
e 64 79
e 64 82
e 64 86
e 64 92
e 64 98
e 64 99
e 64 100
e 65 77
e 65 85
e 66 72
e 66 75
e 66 82
e 66 87
e 67 90
e 67 91
e 67 95
e 68 70
e 68 72
e 68 82
e 68 89
e 68 99
e 68 100
e 69 88
e 69 91
e 70 73
e 70 84
e 70 87
e 70 90
e 70 94
e 70 100
e 71 82
e 71 84
e 72 93
e 72 96
e 72 97
e 73 77
e 73 87
e 73 91
e 73 98
e 74 85
e 75 77
e 76 78
e 76 89
e 77 80
e 77 86
e 77 96
e 78 79
e 78 95
e 78 96
e 78 99
e 79 89
e 79 92
e 80 89
e 80 93
e 80 96
e 81 88
e 81 98
e 82 95
e 83 84
e 83 89
e 83 90
e 83 93
e 83 98
e 85 89
e 85 90
e 85 92
e 86 97
e 86 100
e 87 95
e 88 100
e 91 97
e 92 94
e 92 100
e 93 99
e 94 98
e 94 99
e 95 96
e 96 97
